TSPLIB/results3.tsp
NAME : results3
COMMENT : a comment by the user
TYPE : TSP
DIMENSION : 36
EDGE_WEIGHT_TYPE : EXPLICIT
EDGE_WEIGHT_FORMAT: FULL_MATRIX
EDGE_WEIGHT_SECTION
0 0 59416 51094 51094 21419600 59481 24436808 27104000 50371 30522220 50761 52191 51094 24436808 30522220 30522220 57298 27104000 0 0 21419600 21419600 27104000 0 9999999999 9999999999 9999999999 9999999999 9999999999 9999999999 9999999999 9999999999 9999999999 9999999999 9999999999
0 0 65757 56972 56972 30436906 65806 51704 50371 27104000 52972 28683000 57709 56972 51704 52972 52972 59622 50371 22682800 22682800 30436906 30436906 50371 0 9999999999 9999999999 9999999999 9999999999 9999999999 9999999999 9999999999 9999999999 9999999999 9999999999 9999999999
59416 65757 0 0 30893600 58400 8000 55201 58487 65064 55373 65105 56919 30893600 55201 55373 55373 58646 63242 59416 59416 58400 58400 58487 9999999999 0 9999999999 9999999999 9999999999 9999999999 9999999999 9999999999 9999999999 9999999999 9999999999 9999999999
51094 56972 0 0 0 30893600 30900464 20798523 31444460 55902 22132453 55966 54200 0 20798523 22132453 22132453 52354 56919 51094 51094 30893600 30893600 31444460 9999999999 0 9999999999 9999999999 9999999999 9999999999 9999999999 9999999999 9999999999 9999999999 9999999999 9999999999
51094 56972 30893600 0 0 0 30900464 20798523 31444460 55902 22132453 55966 54200 0 20798523 22132453 22132453 52354 56919 51094 51094 30893600 30893600 31444460 9999999999 9999999999 0 9999999999 9999999999 9999999999 9999999999 9999999999 9999999999 9999999999 9999999999 9999999999
21419600 30436906 58400 30893600 0 0 58401 11965318 7524400 23444043 14285084 23912138 56919 30893600 11965318 14285084 14285084 51264 54200 21419600 21419600 0 0 7524400 9999999999 9999999999 0 9999999999 9999999999 9999999999 9999999999 9999999999 9999999999 9999999999 9999999999 9999999999
59481 65806 8000 30900464 30900464 58401 0 0 58469 65051 55344 65088 57088 30900464 55200 55344 55344 58531 63364 59481 59481 58401 58401 58469 9999999999 9999999999 9999999999 0 9999999999 9999999999 9999999999 9999999999 9999999999 9999999999 9999999999 9999999999
24436808 51704 55201 20798523 20798523 11965318 0 0 13138404 33198160 8471800 50022 55600 20798523 0 8471800 8471800 50600 54751 24436808 24436808 11965318 11965318 13138404 9999999999 9999999999 9999999999 0 9999999999 9999999999 9999999999 9999999999 9999999999 9999999999 9999999999 9999999999
27104000 50371 58487 31444460 31444460 7524400 58469 13138404 0 0 12068215 22742525 58456 31444460 13138404 12068215 12068215 32005099 56000 27104000 27104000 7524400 7524400 0 9999999999 9999999999 9999999999 9999999999 0 9999999999 9999999999 9999999999 9999999999 9999999999 9999999999 9999999999
50371 27104000 65064 55902 55902 23444043 65051 33198160 0 0 32828654 20000 62486 55902 33198160 32828654 32828654 53305 57307 50371 50371 23444043 23444043 22682800 9999999999 9999999999 9999999999 9999999999 0 9999999999 9999999999 9999999999 9999999999 9999999999 9999999999 9999999999
30522220 52972 55373 22132453 22132453 14285084 55344 8471800 12068215 32828654 0 0 57557 22132453 8471800 0 0 28683000 56807 30522220 30522220 14285084 14285084 12068215 9999999999 9999999999 9999999999 9999999999 9999999999 0 9999999999 9999999999 9999999999 9999999999 9999999999 9999999999
50761 28683000 65105 55966 55966 23912138 65088 50022 22742525 20000 0 0 62844 55966 50022 32788400 32788400 52972 57771 50761 50761 23912138 23912138 22742525 9999999999 9999999999 9999999999 9999999999 9999999999 0 9999999999 9999999999 9999999999 9999999999 9999999999 9999999999
52191 57709 56919 54200 54200 56919 57088 55600 58456 62486 57557 62844 0 0 55600 57557 57557 65709 30893600 52191 52191 56919 56919 58456 9999999999 9999999999 9999999999 9999999999 9999999999 9999999999 0 9999999999 9999999999 9999999999 9999999999 9999999999
51094 56972 30893600 0 0 30893600 30900464 20798523 31444460 55902 22132453 55966 0 0 20798523 22132453 22132453 52354 56919 51094 51094 30893600 30893600 31444460 9999999999 9999999999 9999999999 9999999999 9999999999 9999999999 0 9999999999 9999999999 9999999999 9999999999 9999999999
24436808 51704 55201 20798523 20798523 11965318 55200 0 13138404 33198160 8471800 50022 55600 20798523 0 0 8471800 50600 54751 24436808 24436808 11965318 11965318 13138404 9999999999 9999999999 9999999999 9999999999 9999999999 9999999999 9999999999 0 9999999999 9999999999 9999999999 9999999999
30522220 52972 55373 22132453 22132453 14285084 55344 8471800 12068215 32828654 0 32788400 57557 22132453 0 0 0 28683000 56807 30522220 30522220 14285084 14285084 12068215 9999999999 9999999999 9999999999 9999999999 9999999999 9999999999 9999999999 0 9999999999 9999999999 9999999999 9999999999
30522220 52972 55373 22132453 22132453 14285084 55344 8471800 12068215 32828654 0 32788400 57557 22132453 8471800 0 0 0 56807 30522220 30522220 14285084 14285084 12068215 9999999999 9999999999 9999999999 9999999999 9999999999 9999999999 9999999999 9999999999 0 9999999999 9999999999 9999999999
57298 59622 58646 52354 52354 51264 58531 50600 32005099 53305 28683000 52972 65709 52354 50600 28683000 0 0 65203 57298 57298 51264 51264 32005099 9999999999 9999999999 9999999999 9999999999 9999999999 9999999999 9999999999 9999999999 0 9999999999 9999999999 9999999999
27104000 50371 63242 56919 56919 54200 63364 54751 56000 57307 56807 57771 30893600 56919 54751 56807 56807 65203 0 0 27104000 54200 54200 56000 9999999999 9999999999 9999999999 9999999999 9999999999 9999999999 9999999999 9999999999 9999999999 0 9999999999 9999999999
0 22682800 59416 51094 51094 21419600 59481 24436808 27104000 50371 30522220 50761 52191 51094 24436808 30522220 30522220 57298 0 0 0 21419600 21419600 27104000 9999999999 9999999999 9999999999 9999999999 9999999999 9999999999 9999999999 9999999999 9999999999 0 9999999999 9999999999
0 22682800 59416 51094 51094 21419600 59481 24436808 27104000 50371 30522220 50761 52191 51094 24436808 30522220 30522220 57298 27104000 0 0 0 21419600 27104000 9999999999 9999999999 9999999999 9999999999 9999999999 9999999999 9999999999 9999999999 9999999999 9999999999 0 9999999999
21419600 30436906 58400 30893600 30893600 0 58401 11965318 7524400 23444043 14285084 23912138 56919 30893600 11965318 14285084 14285084 51264 54200 21419600 0 0 0 7524400 9999999999 9999999999 9999999999 9999999999 9999999999 9999999999 9999999999 9999999999 9999999999 9999999999 0 9999999999
21419600 30436906 58400 30893600 30893600 0 58401 11965318 7524400 23444043 14285084 23912138 56919 30893600 11965318 14285084 14285084 51264 54200 21419600 21419600 0 0 0 9999999999 9999999999 9999999999 9999999999 9999999999 9999999999 9999999999 9999999999 9999999999 9999999999 9999999999 0
27104000 50371 58487 31444460 31444460 7524400 58469 13138404 0 22682800 12068215 22742525 58456 31444460 13138404 12068215 12068215 32005099 56000 27104000 27104000 7524400 0 0 9999999999 9999999999 9999999999 9999999999 9999999999 9999999999 9999999999 9999999999 9999999999 9999999999 9999999999 0
0 0 9999999999 9999999999 9999999999 9999999999 9999999999 9999999999 9999999999 9999999999 9999999999 9999999999 9999999999 9999999999 9999999999 9999999999 9999999999 9999999999 9999999999 9999999999 9999999999 9999999999 9999999999 9999999999 0 9999999999 9999999999 9999999999 9999999999 9999999999 9999999999 9999999999 9999999999 9999999999 9999999999 9999999999
9999999999 9999999999 0 0 9999999999 9999999999 9999999999 9999999999 9999999999 9999999999 9999999999 9999999999 9999999999 9999999999 9999999999 9999999999 9999999999 9999999999 9999999999 9999999999 9999999999 9999999999 9999999999 9999999999 9999999999 0 9999999999 9999999999 9999999999 9999999999 9999999999 9999999999 9999999999 9999999999 9999999999 9999999999
9999999999 9999999999 9999999999 9999999999 0 0 9999999999 9999999999 9999999999 9999999999 9999999999 9999999999 9999999999 9999999999 9999999999 9999999999 9999999999 9999999999 9999999999 9999999999 9999999999 9999999999 9999999999 9999999999 9999999999 9999999999 0 9999999999 9999999999 9999999999 9999999999 9999999999 9999999999 9999999999 9999999999 9999999999
9999999999 9999999999 9999999999 9999999999 9999999999 9999999999 0 0 9999999999 9999999999 9999999999 9999999999 9999999999 9999999999 9999999999 9999999999 9999999999 9999999999 9999999999 9999999999 9999999999 9999999999 9999999999 9999999999 9999999999 9999999999 9999999999 0 9999999999 9999999999 9999999999 9999999999 9999999999 9999999999 9999999999 9999999999
9999999999 9999999999 9999999999 9999999999 9999999999 9999999999 9999999999 9999999999 0 0 9999999999 9999999999 9999999999 9999999999 9999999999 9999999999 9999999999 9999999999 9999999999 9999999999 9999999999 9999999999 9999999999 9999999999 9999999999 9999999999 9999999999 9999999999 0 9999999999 9999999999 9999999999 9999999999 9999999999 9999999999 9999999999
9999999999 9999999999 9999999999 9999999999 9999999999 9999999999 9999999999 9999999999 9999999999 9999999999 0 0 9999999999 9999999999 9999999999 9999999999 9999999999 9999999999 9999999999 9999999999 9999999999 9999999999 9999999999 9999999999 9999999999 9999999999 9999999999 9999999999 9999999999 0 9999999999 9999999999 9999999999 9999999999 9999999999 9999999999
9999999999 9999999999 9999999999 9999999999 9999999999 9999999999 9999999999 9999999999 9999999999 9999999999 9999999999 9999999999 0 0 9999999999 9999999999 9999999999 9999999999 9999999999 9999999999 9999999999 9999999999 9999999999 9999999999 9999999999 9999999999 9999999999 9999999999 9999999999 9999999999 0 9999999999 9999999999 9999999999 9999999999 9999999999
9999999999 9999999999 9999999999 9999999999 9999999999 9999999999 9999999999 9999999999 9999999999 9999999999 9999999999 9999999999 9999999999 9999999999 0 0 9999999999 9999999999 9999999999 9999999999 9999999999 9999999999 9999999999 9999999999 9999999999 9999999999 9999999999 9999999999 9999999999 9999999999 9999999999 0 9999999999 9999999999 9999999999 9999999999
9999999999 9999999999 9999999999 9999999999 9999999999 9999999999 9999999999 9999999999 9999999999 9999999999 9999999999 9999999999 9999999999 9999999999 9999999999 9999999999 0 0 9999999999 9999999999 9999999999 9999999999 9999999999 9999999999 9999999999 9999999999 9999999999 9999999999 9999999999 9999999999 9999999999 9999999999 0 9999999999 9999999999 9999999999
9999999999 9999999999 9999999999 9999999999 9999999999 9999999999 9999999999 9999999999 9999999999 9999999999 9999999999 9999999999 9999999999 9999999999 9999999999 9999999999 9999999999 9999999999 0 0 9999999999 9999999999 9999999999 9999999999 9999999999 9999999999 9999999999 9999999999 9999999999 9999999999 9999999999 9999999999 9999999999 0 9999999999 9999999999
9999999999 9999999999 9999999999 9999999999 9999999999 9999999999 9999999999 9999999999 9999999999 9999999999 9999999999 9999999999 9999999999 9999999999 9999999999 9999999999 9999999999 9999999999 9999999999 9999999999 0 0 9999999999 9999999999 9999999999 9999999999 9999999999 9999999999 9999999999 9999999999 9999999999 9999999999 9999999999 9999999999 0 9999999999
9999999999 9999999999 9999999999 9999999999 9999999999 9999999999 9999999999 9999999999 9999999999 9999999999 9999999999 9999999999 9999999999 9999999999 9999999999 9999999999 9999999999 9999999999 9999999999 9999999999 9999999999 9999999999 0 0 9999999999 9999999999 9999999999 9999999999 9999999999 9999999999 9999999999 9999999999 9999999999 9999999999 9999999999 0
EOF
